c File  p_hat500-1.clq
c
c Source: P. Soriano and M. Gendreau at  patrick@crt.umontreal.ca
c
c Reference: p-hat graphs are generated with the p-hat generator
c 	      which is a generalization of the classical uniform
c 	      random graph generator.
c 	      Graphs generated with p-hat have wider node degree spread
c 	      and larger cliques than uniform graphs.
c
c NOTE: September 23, 1993 Corrected corrupted file at DIMACS.
c
c
c Generation parameters: 
c 	n =    500 a =  0.00  b =  0.50  Expected density =  0.25
c	Seed =      12513       Real density =  0.253
c
p edge  500     31569	
e 2 1
e 3 2
e 4 1
e 4 3
e 5 2
e 5 3
e 6 1
e 6 5
e 7 2
e 8 2
e 8 3
e 9 6
e 9 7
e 10 2
e 10 3
e 10 4
e 10 8
e 11 1
e 11 10
e 12 3
e 12 5
e 12 8
e 12 9
e 12 10
e 13 6
e 13 11
e 14 8
e 14 11
e 15 1
e 16 2
e 16 9
e 17 4
e 17 10
e 18 2
e 18 17
e 19 11
e 19 15
e 20 4
e 20 16
e 20 19
e 21 2
e 21 7
e 21 8
e 21 14
e 21 16
e 21 17
e 21 19
e 22 2
e 22 10
e 22 13
e 22 16
e 23 4
e 23 5
e 23 10
e 23 14
e 23 20
e 23 21
e 23 22
e 24 8
e 24 10
e 24 11
e 24 13
e 25 3
e 25 4
e 25 7
e 25 12
e 26 1
e 26 25
e 27 14
e 27 23
e 28 2
e 28 10
e 28 20
e 29 1
e 29 6
e 29 7
e 29 12
e 29 19
e 29 21
e 30 1
e 30 6
e 30 7
e 30 9
e 30 10
e 30 11
e 30 12
e 30 22
e 30 23
e 30 25
e 31 2
e 31 13
e 31 27
e 31 30
e 32 1
e 32 8
e 32 10
e 32 12
e 32 13
e 32 17
e 32 21
e 32 22
e 33 1
e 33 10
e 33 17
e 33 23
e 33 28
e 33 31
e 33 32
e 34 2
e 34 4
e 34 5
e 34 8
e 34 10
e 34 12
e 34 15
e 34 17
e 34 20
e 34 21
e 34 26
e 34 33
e 35 1
e 35 2
e 35 6
e 35 7
e 35 8
e 35 11
e 35 17
e 35 18
e 35 21
e 35 27
e 35 28
e 35 30
e 35 32
e 35 33
e 36 4
e 36 8
e 36 10
e 36 11
e 36 12
e 36 13
e 36 18
e 36 22
e 36 25
e 36 26
e 36 32
e 36 34
e 37 3
e 37 5
e 37 7
e 37 8
e 37 11
e 37 14
e 37 19
e 37 23
e 37 24
e 37 26
e 37 30
e 37 32
e 37 34
e 37 35
e 38 4
e 38 11
e 38 20
e 38 22
e 38 23
e 38 29
e 38 30
e 38 32
e 39 1
e 39 2
e 39 4
e 39 7
e 39 8
e 39 11
e 39 18
e 39 19
e 39 21
e 39 24
e 39 27
e 39 28
e 39 30
e 39 31
e 39 35
e 40 1
e 40 6
e 40 8
e 40 18
e 40 35
e 40 39
e 41 4
e 41 23
e 41 24
e 41 25
e 41 29
e 41 35
e 41 37
e 41 39
e 42 9
e 42 10
e 42 15
e 42 16
e 42 20
e 42 27
e 42 28
e 42 32
e 43 7
e 43 8
e 43 11
e 43 13
e 43 22
e 43 23
e 43 29
e 43 32
e 43 33
e 43 39
e 43 41
e 44 5
e 44 10
e 44 12
e 44 18
e 44 19
e 44 22
e 44 23
e 44 39
e 45 5
e 45 16
e 45 20
e 45 23
e 45 43
e 46 15
e 46 23
e 46 32
e 46 36
e 46 40
e 46 43
e 47 2
e 47 3
e 47 4
e 47 7
e 47 19
e 47 22
e 47 23
e 47 28
e 47 29
e 47 34
e 47 39
e 47 41
e 47 42
e 47 46
e 48 1
e 48 5
e 48 8
e 48 10
e 48 12
e 48 13
e 48 24
e 48 25
e 48 43
e 48 44
e 49 1
e 49 10
e 49 11
e 49 13
e 49 18
e 49 33
e 49 38
e 49 40
e 50 6
e 50 9
e 50 24
e 50 25
e 50 29
e 50 33
e 50 35
e 50 42
e 50 44
e 51 1
e 51 2
e 51 4
e 51 10
e 51 11
e 51 17
e 51 18
e 51 25
e 51 32
e 51 35
e 51 37
e 51 39
e 51 42
e 51 44
e 51 46
e 51 49
e 52 2
e 52 8
e 52 11
e 52 20
e 52 21
e 52 27
e 52 31
e 52 32
e 52 34
e 52 35
e 52 36
e 52 43
e 52 51
e 53 6
e 53 7
e 53 29
e 53 34
e 53 47
e 53 50
e 54 2
e 54 3
e 54 4
e 54 5
e 54 8
e 54 16
e 54 21
e 54 28
e 54 39
e 54 42
e 54 43
e 54 45
e 54 46
e 54 52
e 55 1
e 55 6
e 55 8
e 55 10
e 55 11
e 55 14
e 55 18
e 55 21
e 55 22
e 55 26
e 55 29
e 55 30
e 55 40
e 55 41
e 55 47
e 55 49
e 55 51
e 55 54
e 56 5
e 56 7
e 56 13
e 56 21
e 56 26
e 56 30
e 56 31
e 56 36
e 56 37
e 56 45
e 56 47
e 56 52
e 56 55
e 57 11
e 57 12
e 57 14
e 57 22
e 57 25
e 57 28
e 57 29
e 57 30
e 57 31
e 57 34
e 57 35
e 57 38
e 57 39
e 57 42
e 57 46
e 57 47
e 57 51
e 58 3
e 58 19
e 58 21
e 58 23
e 58 37
e 58 53
e 58 57
e 59 1
e 59 3
e 59 4
e 59 7
e 59 11
e 59 19
e 59 23
e 59 27
e 59 28
e 59 29
e 59 34
e 59 35
e 59 37
e 59 38
e 59 39
e 59 46
e 59 48
e 59 55
e 59 56
e 59 58
e 60 3
e 60 10
e 60 26
e 60 33
e 60 34
e 60 41
e 60 55
e 60 57
e 61 1
e 61 2
e 61 7
e 61 12
e 61 16
e 61 17
e 61 19
e 61 22
e 61 23
e 61 29
e 61 32
e 61 37
e 61 38
e 61 44
e 61 49
e 61 53
e 61 55
e 61 56
e 61 57
e 61 59
e 62 13
e 62 22
e 62 23
e 62 28
e 62 39
e 62 55
e 62 61
e 63 4
e 63 7
e 63 10
e 63 11
e 63 12
e 63 15
e 63 19
e 63 20
e 63 22
e 63 23
e 63 29
e 63 30
e 63 31
e 63 33
e 63 34
e 63 35
e 63 44
e 63 46
e 63 50
e 63 51
e 63 56
e 63 59
e 63 61
e 64 1
e 64 8
e 64 17
e 64 24
e 64 29
e 64 31
e 64 34
e 64 37
e 64 39
e 64 40
e 64 43
e 64 46
e 64 48
e 64 52
e 64 61
e 64 62
e 65 1
e 65 2
e 65 4
e 65 8
e 65 10
e 65 12
e 65 17
e 65 18
e 65 21
e 65 24
e 65 30
e 65 34
e 65 35
e 65 37
e 65 41
e 65 42
e 65 43
e 65 46
e 65 55
e 65 57
e 65 59
e 66 1
e 66 3
e 66 7
e 66 8
e 66 9
e 66 10
e 66 13
e 66 19
e 66 21
e 66 27
e 66 33
e 66 35
e 66 40
e 66 45
e 66 47
e 66 48
e 66 51
e 66 52
e 66 55
e 66 60
e 66 62
e 66 63
e 66 64
e 66 65
e 67 6
e 67 7
e 67 8
e 67 19
e 67 23
e 67 27
e 67 34
e 67 37
e 67 39
e 67 40
e 67 44
e 67 48
e 67 50
e 67 52
e 67 54
e 67 55
e 67 60
e 68 2
e 68 10
e 68 13
e 68 16
e 68 27
e 68 28
e 68 36
e 68 37
e 68 39
e 68 40
e 68 45
e 68 50
e 68 51
e 68 52
e 68 58
e 68 59
e 68 60
e 68 61
e 68 66
e 68 67
e 69 2
e 69 7
e 69 10
e 69 12
e 69 15
e 69 19
e 69 22
e 69 26
e 69 31
e 69 33
e 69 34
e 69 47
e 69 50
e 69 51
e 69 53
e 69 61
e 69 63
e 69 64
e 69 65
e 69 67
e 69 68
e 70 1
e 70 2
e 70 3
e 70 5
e 70 27
e 70 29
e 70 30
e 70 31
e 70 32
e 70 38
e 70 42
e 70 43
e 70 45
e 70 52
e 70 55
e 70 56
e 70 57
e 70 58
e 71 7
e 71 8
e 71 10
e 71 19
e 71 21
e 71 22
e 71 26
e 71 32
e 71 33
e 71 36
e 71 37
e 71 39
e 71 46
e 71 47
e 71 48
e 71 54
e 71 55
e 71 58
e 71 59
e 71 63
e 71 69
e 71 70
e 72 18
e 72 23
e 72 26
e 72 30
e 72 34
e 72 43
e 72 55
e 72 57
e 72 65
e 72 66
e 72 68
e 72 70
e 73 18
e 73 22
e 73 29
e 73 30
e 73 35
e 73 37
e 73 40
e 73 52
e 73 60
e 73 61
e 73 66
e 73 67
e 74 2
e 74 4
e 74 7
e 74 9
e 74 10
e 74 12
e 74 18
e 74 30
e 74 32
e 74 35
e 74 36
e 74 46
e 74 47
e 74 55
e 74 56
e 74 67
e 74 68
e 75 8
e 75 10
e 75 13
e 75 15
e 75 17
e 75 18
e 75 19
e 75 21
e 75 23
e 75 25
e 75 26
e 75 28
e 75 34
e 75 36
e 75 40
e 75 46
e 75 51
e 75 53
e 75 54
e 75 66
e 75 68
e 75 70
e 75 74
e 76 1
e 76 8
e 76 15
e 76 17
e 76 19
e 76 21
e 76 25
e 76 33
e 76 34
e 76 36
e 76 50
e 76 65
e 76 66
e 76 69
e 76 71
e 76 74
e 77 3
e 77 22
e 77 23
e 77 25
e 77 28
e 77 36
e 77 39
e 77 44
e 77 46
e 77 50
e 77 63
e 77 65
e 78 10
e 78 19
e 78 32
e 78 34
e 78 39
e 78 42
e 78 54
e 78 66
e 78 67
e 78 72
e 78 73
e 78 75
e 79 1
e 79 2
e 79 8
e 79 9
e 79 10
e 79 23
e 79 25
e 79 29
e 79 32
e 79 33
e 79 34
e 79 35
e 79 36
e 79 45
e 79 47
e 79 50
e 79 53
e 79 57
e 79 60
e 79 61
e 79 63
e 79 66
e 79 67
e 79 70
e 79 71
e 79 73
e 79 78
e 80 13
e 80 30
e 80 32
e 80 36
e 80 43
e 80 45
e 80 47
e 80 53
e 80 59
e 80 63
e 80 70
e 81 1
e 81 8
e 81 13
e 81 17
e 81 18
e 81 19
e 81 21
e 81 28
e 81 38
e 81 41
e 81 42
e 81 44
e 81 46
e 81 49
e 81 50
e 81 54
e 81 57
e 81 62
e 81 63
e 81 64
e 81 65
e 81 70
e 81 71
e 81 73
e 81 74
e 81 75
e 81 77
e 81 78
e 81 79
e 81 80
e 82 3
e 82 10
e 82 16
e 82 23
e 82 30
e 82 36
e 82 39
e 82 42
e 82 43
e 82 45
e 82 46
e 82 48
e 82 52
e 82 68
e 82 75
e 83 2
e 83 4
e 83 7
e 83 9
e 83 18
e 83 20
e 83 26
e 83 28
e 83 29
e 83 34
e 83 36
e 83 41
e 83 43
e 83 44
e 83 45
e 83 46
e 83 48
e 83 50
e 83 55
e 83 56
e 83 61
e 83 62
